
Gurobi 11.0.2 (win64) logging started Wed Jan 22 03:35:55 2025

Set parameter LogFile to value "C:\Users\yshimane3\Documents\codes\dev-julia\TelescopeTasking.jl\scripts\solutions_JASS\logs\log_MTTP3_targetS2_E1_Gurobi.log"
Set parameter Method to value 0

Gurobi 11.0.2 (win64) logging started Wed Jan 22 03:36:10 2025

Set parameter LogFile to value "C:\Users\yshimane3\Documents\codes\dev-julia\TelescopeTasking.jl\scripts\solutions_JASS\logs\log_MTTP3_targetS2_E1_Gurobi.log"
Gurobi Optimizer version 11.0.2 build v11.0.2rc0 (win64 - Windows 11.0 (22621.2))

CPU model: 12th Gen Intel(R) Core(TM) i7-12700, instruction set [SSE2|AVX|AVX2]
Thread count: 12 physical cores, 20 logical processors, using up to 20 threads

Optimize a model with 6260357 rows, 7634 columns and 12523088 nonzeros
Model fingerprint: 0x71617ed0
Variable types: 0 continuous, 7634 integer (7634 binary)
Coefficient statistics:
  Matrix range     [1e+00, 1e+00]
  Objective range  [1e+00, 1e+00]
  Bounds range     [0e+00, 0e+00]
  RHS range        [1e+00, 2e+00]
Found heuristic solution: objective -0.0000000
Presolve removed 6224659 rows and 0 columns
Presolve time: 1.41s
Presolved: 35698 rows, 7634 columns, 73770 nonzeros
Variable types: 0 continuous, 7634 integer (7634 binary)
Found heuristic solution: objective 571.0000000

Root relaxation: objective 6.795000e+02, 5728 iterations, 0.05 seconds (0.04 work units)

    Nodes    |    Current Node    |     Objective Bounds      |     Work
 Expl Unexpl |  Obj  Depth IntInf | Incumbent    BestBd   Gap | It/Node Time

     0     0  679.50000    0  163  571.00000  679.50000  19.0%     -    2s
H    0     0                     676.0000000  679.50000  0.52%     -    2s
     0     0     cutoff    0       676.00000  676.00000  0.00%     -    2s

Cutting planes:
  Gomory: 11
  Clique: 9
  Zero half: 101

Explored 1 nodes (7942 simplex iterations) in 2.78 seconds (2.65 work units)
Thread count was 20 (of 20 available processors)

Solution count 4: 676 571 3 -0 

Optimal solution found (tolerance 1.00e-04)
Best objective 6.760000000000e+02, best bound 6.760000000000e+02, gap 0.0000%

User-callback calls 786, time in user-callback 0.00 sec
